p cnf 276 934
c p weight -109 1 0
c p weight 109 -1 0
c p weight 113 6.12323399573676603586882014729198302312846062338790031898128063403419218957424163818359375E-17 0
c p weight -113 1 0
c p weight 114 1 0
c p weight -114 1 0
c p weight -111 1 0
c p weight 111 -1 0
c p weight -115 1 0
c p weight 115 -1 0
c p weight -117 1 0
c p weight 117 -1 0
c p weight -120 1 0
c p weight 120 -1 0
c p weight -123 1 0
c p weight 123 -1 0
c p weight -126 1 0
c p weight 126 -1 0
c p weight -129 1 0
c p weight 129 -1 0
c p weight -132 1 0
c p weight 132 -1 0
c p weight -135 1 0
c p weight 135 -1 0
c p weight -138 1 0
c p weight 138 -1 0
c p weight -141 1 0
c p weight 141 -1 0
c p weight -144 1 0
c p weight 144 -1 0
c p weight -147 1 0
c p weight 147 -1 0
c p weight -150 1 0
c p weight 150 -1 0
c p weight -153 1 0
c p weight 153 -1 0
c p weight -156 1 0
c p weight 156 -1 0
c p weight -159 1 0
c p weight 159 -1 0
c p weight -162 1 0
c p weight 162 -1 0
c p weight -165 1 0
c p weight 165 -1 0
c p weight -168 1 0
c p weight 168 -1 0
c p weight -171 1 0
c p weight 171 -1 0
c p weight -174 1 0
c p weight 174 -1 0
c p weight -177 1 0
c p weight 177 -1 0
c p weight -180 1 0
c p weight 180 -1 0
c p weight -183 1 0
c p weight 183 -1 0
c p weight -186 1 0
c p weight 186 -1 0
c p weight -189 1 0
c p weight 189 -1 0
c p weight -192 1 0
c p weight 192 -1 0
c p weight -195 1 0
c p weight 195 -1 0
c p weight -198 1 0
c p weight 198 -1 0
c p weight -201 1 0
c p weight 201 -1 0
c p weight -204 1 0
c p weight 204 -1 0
c p weight -207 1 0
c p weight 207 -1 0
c p weight -210 1 0
c p weight 210 -1 0
c p weight -213 1 0
c p weight 213 -1 0
c p weight -216 1 0
c p weight 216 -1 0
c p weight -219 1 0
c p weight 219 -1 0
c p weight -222 1 0
c p weight 222 -1 0
c p weight -225 1 0
c p weight 225 -1 0
c p weight -228 1 0
c p weight 228 -1 0
c p weight -231 1 0
c p weight 231 -1 0
c p weight -234 1 0
c p weight 234 -1 0
c p weight -237 1 0
c p weight 237 -1 0
c p weight -240 1 0
c p weight 240 -1 0
c p weight -243 1 0
c p weight 243 -1 0
c p weight -246 1 0
c p weight 246 -1 0
c p weight -249 1 0
c p weight 249 -1 0
c p weight -252 1 0
c p weight 252 -1 0
c p weight -255 1 0
c p weight 255 -1 0
c p weight -258 1 0
c p weight 258 -1 0
c p weight -261 1 0
c p weight 261 -1 0
c p weight -264 1 0
c p weight 264 -1 0
c p weight -267 1 0
c p weight 267 -1 0
c p weight -270 1 0
c p weight 270 -1 0
c p weight -273 1 0
c p weight 273 -1 0
c p weight 276 0.5 0
c p weight -276 1 0
276 0
-107 0
-105 0
-103 0
-101 0
-99 0
-97 0
-95 0
-93 0
-91 0
-89 0
-87 0
-85 0
-83 0
-81 0
-79 0
-77 0
-75 0
-73 0
-71 0
-69 0
-67 0
-65 0
-63 0
-61 0
-59 0
-57 0
-55 0
-53 0
-51 0
-49 0
-47 0
-45 0
-43 0
-41 0
-39 0
-37 0
-35 0
-33 0
-31 0
-29 0
-27 0
-25 0
-23 0
-21 0
-19 0
-17 0
-15 0
-13 0
-11 0
-9 0
-7 0
-5 0
-3 0
-1 0
-109 107 0
-109 108 0
109 -107 -108 0
110 107 -108 0
110 -107 108 0
-110 107 108 0
-110 -107 -108 0
-111 112 0
-111 110 0
-111 -107 0
111 -112 107 -110 0
112 -107 110 0
-112 107 110 0
-113 110 0
112 -113 -107 0
-112 -113 107 0
112 113 107 -110 0
-112 113 -107 -110 0
-114 110 0
112 -114 107 0
-112 -114 -107 0
112 114 -107 -110 0
-112 114 107 -110 0
-115 112 0
-115 110 0
115 -112 -110 0
116 112 -110 0
116 -112 110 0
-116 112 110 0
-116 -112 -110 0
-117 112 0
-117 106 0
-117 105 -116 0
-117 -105 116 0
117 -112 105 116 -106 0
117 -112 -105 -116 -106 0
119 112 -105 0
119 -112 105 0
-119 112 105 0
-119 -112 -105 0
118 116 -106 0
118 -116 106 0
-118 116 106 0
-118 -116 -106 0
-120 119 0
-120 104 0
-120 103 -106 0
-120 -103 106 0
120 -119 103 106 -104 0
120 -119 -103 -106 -104 0
122 119 -103 0
122 -119 103 0
-122 119 103 0
-122 -119 -103 0
121 106 -104 0
121 -106 104 0
-121 106 104 0
-121 -106 -104 0
-123 122 0
-123 102 0
-123 101 -104 0
-123 -101 104 0
123 -122 101 104 -102 0
123 -122 -101 -104 -102 0
125 122 -101 0
125 -122 101 0
-125 122 101 0
-125 -122 -101 0
124 104 -102 0
124 -104 102 0
-124 104 102 0
-124 -104 -102 0
-126 125 0
-126 100 0
-126 99 -102 0
-126 -99 102 0
126 -125 99 102 -100 0
126 -125 -99 -102 -100 0
128 125 -99 0
128 -125 99 0
-128 125 99 0
-128 -125 -99 0
127 102 -100 0
127 -102 100 0
-127 102 100 0
-127 -102 -100 0
-129 128 0
-129 98 0
-129 97 -100 0
-129 -97 100 0
129 -128 97 100 -98 0
129 -128 -97 -100 -98 0
131 128 -97 0
131 -128 97 0
-131 128 97 0
-131 -128 -97 0
130 100 -98 0
130 -100 98 0
-130 100 98 0
-130 -100 -98 0
-132 131 0
-132 96 0
-132 95 -98 0
-132 -95 98 0
132 -131 95 98 -96 0
132 -131 -95 -98 -96 0
134 131 -95 0
134 -131 95 0
-134 131 95 0
-134 -131 -95 0
133 98 -96 0
133 -98 96 0
-133 98 96 0
-133 -98 -96 0
-135 134 0
-135 94 0
-135 93 -96 0
-135 -93 96 0
135 -134 93 96 -94 0
135 -134 -93 -96 -94 0
137 134 -93 0
137 -134 93 0
-137 134 93 0
-137 -134 -93 0
136 96 -94 0
136 -96 94 0
-136 96 94 0
-136 -96 -94 0
-138 137 0
-138 92 0
-138 91 -94 0
-138 -91 94 0
138 -137 91 94 -92 0
138 -137 -91 -94 -92 0
140 137 -91 0
140 -137 91 0
-140 137 91 0
-140 -137 -91 0
139 94 -92 0
139 -94 92 0
-139 94 92 0
-139 -94 -92 0
-141 140 0
-141 90 0
-141 89 -92 0
-141 -89 92 0
141 -140 89 92 -90 0
141 -140 -89 -92 -90 0
143 140 -89 0
143 -140 89 0
-143 140 89 0
-143 -140 -89 0
142 92 -90 0
142 -92 90 0
-142 92 90 0
-142 -92 -90 0
-144 143 0
-144 88 0
-144 87 -90 0
-144 -87 90 0
144 -143 87 90 -88 0
144 -143 -87 -90 -88 0
146 143 -87 0
146 -143 87 0
-146 143 87 0
-146 -143 -87 0
145 90 -88 0
145 -90 88 0
-145 90 88 0
-145 -90 -88 0
-147 146 0
-147 86 0
-147 85 -88 0
-147 -85 88 0
147 -146 85 88 -86 0
147 -146 -85 -88 -86 0
149 146 -85 0
149 -146 85 0
-149 146 85 0
-149 -146 -85 0
148 88 -86 0
148 -88 86 0
-148 88 86 0
-148 -88 -86 0
-150 149 0
-150 84 0
-150 83 -86 0
-150 -83 86 0
150 -149 83 86 -84 0
150 -149 -83 -86 -84 0
152 149 -83 0
152 -149 83 0
-152 149 83 0
-152 -149 -83 0
151 86 -84 0
151 -86 84 0
-151 86 84 0
-151 -86 -84 0
-153 152 0
-153 82 0
-153 81 -84 0
-153 -81 84 0
153 -152 81 84 -82 0
153 -152 -81 -84 -82 0
155 152 -81 0
155 -152 81 0
-155 152 81 0
-155 -152 -81 0
154 84 -82 0
154 -84 82 0
-154 84 82 0
-154 -84 -82 0
-156 155 0
-156 80 0
-156 79 -82 0
-156 -79 82 0
156 -155 79 82 -80 0
156 -155 -79 -82 -80 0
158 155 -79 0
158 -155 79 0
-158 155 79 0
-158 -155 -79 0
157 82 -80 0
157 -82 80 0
-157 82 80 0
-157 -82 -80 0
-159 158 0
-159 78 0
-159 77 -80 0
-159 -77 80 0
159 -158 77 80 -78 0
159 -158 -77 -80 -78 0
161 158 -77 0
161 -158 77 0
-161 158 77 0
-161 -158 -77 0
160 80 -78 0
160 -80 78 0
-160 80 78 0
-160 -80 -78 0
-162 161 0
-162 76 0
-162 75 -78 0
-162 -75 78 0
162 -161 75 78 -76 0
162 -161 -75 -78 -76 0
164 161 -75 0
164 -161 75 0
-164 161 75 0
-164 -161 -75 0
163 78 -76 0
163 -78 76 0
-163 78 76 0
-163 -78 -76 0
-165 164 0
-165 74 0
-165 73 -76 0
-165 -73 76 0
165 -164 73 76 -74 0
165 -164 -73 -76 -74 0
167 164 -73 0
167 -164 73 0
-167 164 73 0
-167 -164 -73 0
166 76 -74 0
166 -76 74 0
-166 76 74 0
-166 -76 -74 0
-168 167 0
-168 72 0
-168 71 -74 0
-168 -71 74 0
168 -167 71 74 -72 0
168 -167 -71 -74 -72 0
170 167 -71 0
170 -167 71 0
-170 167 71 0
-170 -167 -71 0
169 74 -72 0
169 -74 72 0
-169 74 72 0
-169 -74 -72 0
-171 170 0
-171 70 0
-171 69 -72 0
-171 -69 72 0
171 -170 69 72 -70 0
171 -170 -69 -72 -70 0
173 170 -69 0
173 -170 69 0
-173 170 69 0
-173 -170 -69 0
172 72 -70 0
172 -72 70 0
-172 72 70 0
-172 -72 -70 0
-174 173 0
-174 68 0
-174 67 -70 0
-174 -67 70 0
174 -173 67 70 -68 0
174 -173 -67 -70 -68 0
176 173 -67 0
176 -173 67 0
-176 173 67 0
-176 -173 -67 0
175 70 -68 0
175 -70 68 0
-175 70 68 0
-175 -70 -68 0
-177 176 0
-177 66 0
-177 65 -68 0
-177 -65 68 0
177 -176 65 68 -66 0
177 -176 -65 -68 -66 0
179 176 -65 0
179 -176 65 0
-179 176 65 0
-179 -176 -65 0
178 68 -66 0
178 -68 66 0
-178 68 66 0
-178 -68 -66 0
-180 179 0
-180 64 0
-180 63 -66 0
-180 -63 66 0
180 -179 63 66 -64 0
180 -179 -63 -66 -64 0
182 179 -63 0
182 -179 63 0
-182 179 63 0
-182 -179 -63 0
181 66 -64 0
181 -66 64 0
-181 66 64 0
-181 -66 -64 0
-183 182 0
-183 62 0
-183 61 -64 0
-183 -61 64 0
183 -182 61 64 -62 0
183 -182 -61 -64 -62 0
185 182 -61 0
185 -182 61 0
-185 182 61 0
-185 -182 -61 0
184 64 -62 0
184 -64 62 0
-184 64 62 0
-184 -64 -62 0
-186 185 0
-186 60 0
-186 59 -62 0
-186 -59 62 0
186 -185 59 62 -60 0
186 -185 -59 -62 -60 0
188 185 -59 0
188 -185 59 0
-188 185 59 0
-188 -185 -59 0
187 62 -60 0
187 -62 60 0
-187 62 60 0
-187 -62 -60 0
-189 188 0
-189 58 0
-189 57 -60 0
-189 -57 60 0
189 -188 57 60 -58 0
189 -188 -57 -60 -58 0
191 188 -57 0
191 -188 57 0
-191 188 57 0
-191 -188 -57 0
190 60 -58 0
190 -60 58 0
-190 60 58 0
-190 -60 -58 0
-192 191 0
-192 56 0
-192 55 -58 0
-192 -55 58 0
192 -191 55 58 -56 0
192 -191 -55 -58 -56 0
194 191 -55 0
194 -191 55 0
-194 191 55 0
-194 -191 -55 0
193 58 -56 0
193 -58 56 0
-193 58 56 0
-193 -58 -56 0
-195 194 0
-195 54 0
-195 53 -56 0
-195 -53 56 0
195 -194 53 56 -54 0
195 -194 -53 -56 -54 0
197 194 -53 0
197 -194 53 0
-197 194 53 0
-197 -194 -53 0
196 56 -54 0
196 -56 54 0
-196 56 54 0
-196 -56 -54 0
-198 197 0
-198 52 0
-198 51 -54 0
-198 -51 54 0
198 -197 51 54 -52 0
198 -197 -51 -54 -52 0
200 197 -51 0
200 -197 51 0
-200 197 51 0
-200 -197 -51 0
199 54 -52 0
199 -54 52 0
-199 54 52 0
-199 -54 -52 0
-201 200 0
-201 50 0
-201 49 -52 0
-201 -49 52 0
201 -200 49 52 -50 0
201 -200 -49 -52 -50 0
203 200 -49 0
203 -200 49 0
-203 200 49 0
-203 -200 -49 0
202 52 -50 0
202 -52 50 0
-202 52 50 0
-202 -52 -50 0
-204 203 0
-204 48 0
-204 47 -50 0
-204 -47 50 0
204 -203 47 50 -48 0
204 -203 -47 -50 -48 0
206 203 -47 0
206 -203 47 0
-206 203 47 0
-206 -203 -47 0
205 50 -48 0
205 -50 48 0
-205 50 48 0
-205 -50 -48 0
-207 206 0
-207 46 0
-207 45 -48 0
-207 -45 48 0
207 -206 45 48 -46 0
207 -206 -45 -48 -46 0
209 206 -45 0
209 -206 45 0
-209 206 45 0
-209 -206 -45 0
208 48 -46 0
208 -48 46 0
-208 48 46 0
-208 -48 -46 0
-210 209 0
-210 44 0
-210 43 -46 0
-210 -43 46 0
210 -209 43 46 -44 0
210 -209 -43 -46 -44 0
212 209 -43 0
212 -209 43 0
-212 209 43 0
-212 -209 -43 0
211 46 -44 0
211 -46 44 0
-211 46 44 0
-211 -46 -44 0
-213 212 0
-213 42 0
-213 41 -44 0
-213 -41 44 0
213 -212 41 44 -42 0
213 -212 -41 -44 -42 0
215 212 -41 0
215 -212 41 0
-215 212 41 0
-215 -212 -41 0
214 44 -42 0
214 -44 42 0
-214 44 42 0
-214 -44 -42 0
-216 215 0
-216 40 0
-216 39 -42 0
-216 -39 42 0
216 -215 39 42 -40 0
216 -215 -39 -42 -40 0
218 215 -39 0
218 -215 39 0
-218 215 39 0
-218 -215 -39 0
217 42 -40 0
217 -42 40 0
-217 42 40 0
-217 -42 -40 0
-219 218 0
-219 38 0
-219 37 -40 0
-219 -37 40 0
219 -218 37 40 -38 0
219 -218 -37 -40 -38 0
221 218 -37 0
221 -218 37 0
-221 218 37 0
-221 -218 -37 0
220 40 -38 0
220 -40 38 0
-220 40 38 0
-220 -40 -38 0
-222 221 0
-222 36 0
-222 35 -38 0
-222 -35 38 0
222 -221 35 38 -36 0
222 -221 -35 -38 -36 0
224 221 -35 0
224 -221 35 0
-224 221 35 0
-224 -221 -35 0
223 38 -36 0
223 -38 36 0
-223 38 36 0
-223 -38 -36 0
-225 224 0
-225 34 0
-225 33 -36 0
-225 -33 36 0
225 -224 33 36 -34 0
225 -224 -33 -36 -34 0
227 224 -33 0
227 -224 33 0
-227 224 33 0
-227 -224 -33 0
226 36 -34 0
226 -36 34 0
-226 36 34 0
-226 -36 -34 0
-228 227 0
-228 32 0
-228 31 -34 0
-228 -31 34 0
228 -227 31 34 -32 0
228 -227 -31 -34 -32 0
230 227 -31 0
230 -227 31 0
-230 227 31 0
-230 -227 -31 0
229 34 -32 0
229 -34 32 0
-229 34 32 0
-229 -34 -32 0
-231 230 0
-231 30 0
-231 29 -32 0
-231 -29 32 0
231 -230 29 32 -30 0
231 -230 -29 -32 -30 0
233 230 -29 0
233 -230 29 0
-233 230 29 0
-233 -230 -29 0
232 32 -30 0
232 -32 30 0
-232 32 30 0
-232 -32 -30 0
-234 233 0
-234 28 0
-234 27 -30 0
-234 -27 30 0
234 -233 27 30 -28 0
234 -233 -27 -30 -28 0
236 233 -27 0
236 -233 27 0
-236 233 27 0
-236 -233 -27 0
235 30 -28 0
235 -30 28 0
-235 30 28 0
-235 -30 -28 0
-237 236 0
-237 26 0
-237 25 -28 0
-237 -25 28 0
237 -236 25 28 -26 0
237 -236 -25 -28 -26 0
239 236 -25 0
239 -236 25 0
-239 236 25 0
-239 -236 -25 0
238 28 -26 0
238 -28 26 0
-238 28 26 0
-238 -28 -26 0
-240 239 0
-240 24 0
-240 23 -26 0
-240 -23 26 0
240 -239 23 26 -24 0
240 -239 -23 -26 -24 0
242 239 -23 0
242 -239 23 0
-242 239 23 0
-242 -239 -23 0
241 26 -24 0
241 -26 24 0
-241 26 24 0
-241 -26 -24 0
-243 242 0
-243 22 0
-243 21 -24 0
-243 -21 24 0
243 -242 21 24 -22 0
243 -242 -21 -24 -22 0
245 242 -21 0
245 -242 21 0
-245 242 21 0
-245 -242 -21 0
244 24 -22 0
244 -24 22 0
-244 24 22 0
-244 -24 -22 0
-246 245 0
-246 20 0
-246 19 -22 0
-246 -19 22 0
246 -245 19 22 -20 0
246 -245 -19 -22 -20 0
248 245 -19 0
248 -245 19 0
-248 245 19 0
-248 -245 -19 0
247 22 -20 0
247 -22 20 0
-247 22 20 0
-247 -22 -20 0
-249 248 0
-249 18 0
-249 17 -20 0
-249 -17 20 0
249 -248 17 20 -18 0
249 -248 -17 -20 -18 0
251 248 -17 0
251 -248 17 0
-251 248 17 0
-251 -248 -17 0
250 20 -18 0
250 -20 18 0
-250 20 18 0
-250 -20 -18 0
-252 251 0
-252 16 0
-252 15 -18 0
-252 -15 18 0
252 -251 15 18 -16 0
252 -251 -15 -18 -16 0
254 251 -15 0
254 -251 15 0
-254 251 15 0
-254 -251 -15 0
253 18 -16 0
253 -18 16 0
-253 18 16 0
-253 -18 -16 0
-255 254 0
-255 14 0
-255 13 -16 0
-255 -13 16 0
255 -254 13 16 -14 0
255 -254 -13 -16 -14 0
257 254 -13 0
257 -254 13 0
-257 254 13 0
-257 -254 -13 0
256 16 -14 0
256 -16 14 0
-256 16 14 0
-256 -16 -14 0
-258 257 0
-258 12 0
-258 11 -14 0
-258 -11 14 0
258 -257 11 14 -12 0
258 -257 -11 -14 -12 0
260 257 -11 0
260 -257 11 0
-260 257 11 0
-260 -257 -11 0
259 14 -12 0
259 -14 12 0
-259 14 12 0
-259 -14 -12 0
-261 260 0
-261 10 0
-261 9 -12 0
-261 -9 12 0
261 -260 9 12 -10 0
261 -260 -9 -12 -10 0
263 260 -9 0
263 -260 9 0
-263 260 9 0
-263 -260 -9 0
262 12 -10 0
262 -12 10 0
-262 12 10 0
-262 -12 -10 0
-264 263 0
-264 8 0
-264 7 -10 0
-264 -7 10 0
264 -263 7 10 -8 0
264 -263 -7 -10 -8 0
266 263 -7 0
266 -263 7 0
-266 263 7 0
-266 -263 -7 0
265 10 -8 0
265 -10 8 0
-265 10 8 0
-265 -10 -8 0
-267 266 0
-267 6 0
-267 5 -8 0
-267 -5 8 0
267 -266 5 8 -6 0
267 -266 -5 -8 -6 0
269 266 -5 0
269 -266 5 0
-269 266 5 0
-269 -266 -5 0
268 8 -6 0
268 -8 6 0
-268 8 6 0
-268 -8 -6 0
-270 269 0
-270 4 0
-270 3 -6 0
-270 -3 6 0
270 -269 3 6 -4 0
270 -269 -3 -6 -4 0
272 269 -3 0
272 -269 3 0
-272 269 3 0
-272 -269 -3 0
271 6 -4 0
271 -6 4 0
-271 6 4 0
-271 -6 -4 0
-273 272 0
-273 2 0
-273 1 -4 0
-273 -1 4 0
273 -272 1 4 -2 0
273 -272 -1 -4 -2 0
275 272 -1 0
275 -272 1 0
-275 272 1 0
-275 -272 -1 0
274 4 -2 0
274 -4 2 0
-274 4 2 0
-274 -4 -2 0
-275 0
-272 0
-274 0
-269 0
-271 0
-266 0
-268 0
-263 0
-265 0
-260 0
-262 0
-257 0
-259 0
-254 0
-256 0
-251 0
-253 0
-248 0
-250 0
-245 0
-247 0
-242 0
-244 0
-239 0
-241 0
-236 0
-238 0
-233 0
-235 0
-230 0
-232 0
-227 0
-229 0
-224 0
-226 0
-221 0
-223 0
-218 0
-220 0
-215 0
-217 0
-212 0
-214 0
-209 0
-211 0
-206 0
-208 0
-203 0
-205 0
-200 0
-202 0
-197 0
-199 0
-194 0
-196 0
-191 0
-193 0
-188 0
-190 0
-185 0
-187 0
-182 0
-184 0
-179 0
-181 0
-176 0
-178 0
-173 0
-175 0
-170 0
-172 0
-167 0
-169 0
-164 0
-166 0
-161 0
-163 0
-158 0
-160 0
-155 0
-157 0
-152 0
-154 0
-149 0
-151 0
-146 0
-148 0
-143 0
-145 0
-140 0
-142 0
-137 0
-139 0
-134 0
-136 0
-131 0
-133 0
-128 0
-130 0
-125 0
-127 0
-122 0
-124 0
-119 0
-121 0
-112 0
-118 0
